NAME: cum50.tsp
TYPE: TSP
COMMENT: User-generated TSP file
DIMENSION: 50
EDGE_WEIGHT_TYPE: EUC_2D
NODE_COORD_SECTION
1 19.0 50.0
2 48.0 5.0
3 16.0 35.0
4 5.0 12.0
5 9.0 47.0
6 1.0 15.0
7 26.0 19.0
8 43.0 35.0
9 31.0 48.0
10 49.0 2.0
11 37.0 42.0
12 9.0 43.0
13 46.0 12.0
14 19.0 3.0
15 32.0 28.0
16 15.0 3.0
17 40.0 1.0
18 40.0 43.0
19 19.0 3.0
20 19.0 43.0
21 32.0 46.0
22 43.0 40.0
23 35.0 20.0
24 39.0 32.0
25 1.0 46.0
26 39.0 45.0
27 29.0 41.0
28 21.0 12.0
29 19.0 14.0
30 4.0 40.0
31 18.0 14.0
32 23.0 35.0
33 11.0 27.0
34 24.0 22.0
35 41.0 46.0
36 20.0 3.0
37 27.0 2.0
38 3.0 50.0
39 20.0 22.0
40 23.0 24.0
41 14.0 15.0
42 31.0 26.0
43 41.0 28.0
44 12.0 14.0
45 2.0 11.0
46 9.0 28.0
47 38.0 25.0
48 48.0 6.0
49 45.0 6.0
50 10.0 47.0
EOF





